c at-most-one of 10 pigeons in 9 holes
c p1@1 1
c p1@2 2
c p1@3 3
c p1@4 4
c p1@5 5
c p1@6 6
c p1@7 7
c p1@8 8
c p1@9 9
c p2@1 10
c p2@2 11
c p2@3 12
c p2@4 13
c p2@5 14
c p2@6 15
c p2@7 16
c p2@8 17
c p2@9 18
c p3@1 19
c p3@2 20
c p3@3 21
c p3@4 22
c p3@5 23
c p3@6 24
c p3@7 25
c p3@8 26
c p3@9 27
c p4@1 28
c p4@2 29
c p4@3 30
c p4@4 31
c p4@5 32
c p4@6 33
c p4@7 34
c p4@8 35
c p4@9 36
c p5@1 37
c p5@2 38
c p5@3 39
c p5@4 40
c p5@5 41
c p5@6 42
c p5@7 43
c p5@8 44
c p5@9 45
c p6@1 46
c p6@2 47
c p6@3 48
c p6@4 49
c p6@5 50
c p6@6 51
c p6@7 52
c p6@8 53
c p6@9 54
c p7@1 55
c p7@2 56
c p7@3 57
c p7@4 58
c p7@5 59
c p7@6 60
c p7@7 61
c p7@8 62
c p7@9 63
c p8@1 64
c p8@2 65
c p8@3 66
c p8@4 67
c p8@5 68
c p8@6 69
c p8@7 70
c p8@8 71
c p8@9 72
c p9@1 73
c p9@2 74
c p9@3 75
c p9@4 76
c p9@5 77
c p9@6 78
c p9@7 79
c p9@8 80
c p9@9 81
c p10@1 82
c p10@2 83
c p10@3 84
c p10@4 85
c p10@5 86
c p10@6 87
c p10@7 88
c p10@8 89
c p10@9 90
p inccnf
1 2 3 4 5 6 7 8 9 0
10 11 12 13 14 15 16 17 18 0
19 20 21 22 23 24 25 26 27 0
28 29 30 31 32 33 34 35 36 0
37 38 39 40 41 42 43 44 45 0
46 47 48 49 50 51 52 53 54 0
55 56 57 58 59 60 61 62 63 0
64 65 66 67 68 69 70 71 72 0
73 74 75 76 77 78 79 80 81 0
82 83 84 85 86 87 88 89 90 0
-1 -10 0
-1 -19 0
-1 -28 0
-1 -37 0
-1 -46 0
-1 -55 0
-1 -64 0
-1 -73 0
-1 -82 0
-10 -19 0
-10 -28 0
-10 -37 0
-10 -46 0
-10 -55 0
-10 -64 0
-10 -73 0
-10 -82 0
-19 -28 0
-19 -37 0
-19 -46 0
-19 -55 0
-19 -64 0
-19 -73 0
-19 -82 0
-28 -37 0
-28 -46 0
-28 -55 0
-28 -64 0
-28 -73 0
-28 -82 0
-37 -46 0
-37 -55 0
-37 -64 0
-37 -73 0
-37 -82 0
-46 -55 0
-46 -64 0
-46 -73 0
-46 -82 0
-55 -64 0
-55 -73 0
-55 -82 0
-64 -73 0
-64 -82 0
-73 -82 0
-2 -11 0
-2 -20 0
-2 -29 0
-2 -38 0
-2 -47 0
-2 -56 0
-2 -65 0
-2 -74 0
-2 -83 0
-11 -20 0
-11 -29 0
-11 -38 0
-11 -47 0
-11 -56 0
-11 -65 0
-11 -74 0
-11 -83 0
-20 -29 0
-20 -38 0
-20 -47 0
-20 -56 0
-20 -65 0
-20 -74 0
-20 -83 0
-29 -38 0
-29 -47 0
-29 -56 0
-29 -65 0
-29 -74 0
-29 -83 0
-38 -47 0
-38 -56 0
-38 -65 0
-38 -74 0
-38 -83 0
-47 -56 0
-47 -65 0
-47 -74 0
-47 -83 0
-56 -65 0
-56 -74 0
-56 -83 0
-65 -74 0
-65 -83 0
-74 -83 0
-3 -12 0
-3 -21 0
-3 -30 0
-3 -39 0
-3 -48 0
-3 -57 0
-3 -66 0
-3 -75 0
-3 -84 0
-12 -21 0
-12 -30 0
-12 -39 0
-12 -48 0
-12 -57 0
-12 -66 0
-12 -75 0
-12 -84 0
-21 -30 0
-21 -39 0
-21 -48 0
-21 -57 0
-21 -66 0
-21 -75 0
-21 -84 0
-30 -39 0
-30 -48 0
-30 -57 0
-30 -66 0
-30 -75 0
-30 -84 0
-39 -48 0
-39 -57 0
-39 -66 0
-39 -75 0
-39 -84 0
-48 -57 0
-48 -66 0
-48 -75 0
-48 -84 0
-57 -66 0
-57 -75 0
-57 -84 0
-66 -75 0
-66 -84 0
-75 -84 0
-4 -13 0
-4 -22 0
-4 -31 0
-4 -40 0
-4 -49 0
-4 -58 0
-4 -67 0
-4 -76 0
-4 -85 0
-13 -22 0
-13 -31 0
-13 -40 0
-13 -49 0
-13 -58 0
-13 -67 0
-13 -76 0
-13 -85 0
-22 -31 0
-22 -40 0
-22 -49 0
-22 -58 0
-22 -67 0
-22 -76 0
-22 -85 0
-31 -40 0
-31 -49 0
-31 -58 0
-31 -67 0
-31 -76 0
-31 -85 0
-40 -49 0
-40 -58 0
-40 -67 0
-40 -76 0
-40 -85 0
-49 -58 0
-49 -67 0
-49 -76 0
-49 -85 0
-58 -67 0
-58 -76 0
-58 -85 0
-67 -76 0
-67 -85 0
-76 -85 0
-5 -14 0
-5 -23 0
-5 -32 0
-5 -41 0
-5 -50 0
-5 -59 0
-5 -68 0
-5 -77 0
-5 -86 0
-14 -23 0
-14 -32 0
-14 -41 0
-14 -50 0
-14 -59 0
-14 -68 0
-14 -77 0
-14 -86 0
-23 -32 0
-23 -41 0
-23 -50 0
-23 -59 0
-23 -68 0
-23 -77 0
-23 -86 0
-32 -41 0
-32 -50 0
-32 -59 0
-32 -68 0
-32 -77 0
-32 -86 0
-41 -50 0
-41 -59 0
-41 -68 0
-41 -77 0
-41 -86 0
-50 -59 0
-50 -68 0
-50 -77 0
-50 -86 0
-59 -68 0
-59 -77 0
-59 -86 0
-68 -77 0
-68 -86 0
-77 -86 0
-6 -15 0
-6 -24 0
-6 -33 0
-6 -42 0
-6 -51 0
-6 -60 0
-6 -69 0
-6 -78 0
-6 -87 0
-15 -24 0
-15 -33 0
-15 -42 0
-15 -51 0
-15 -60 0
-15 -69 0
-15 -78 0
-15 -87 0
-24 -33 0
-24 -42 0
-24 -51 0
-24 -60 0
-24 -69 0
-24 -78 0
-24 -87 0
-33 -42 0
-33 -51 0
-33 -60 0
-33 -69 0
-33 -78 0
-33 -87 0
-42 -51 0
-42 -60 0
-42 -69 0
-42 -78 0
-42 -87 0
-51 -60 0
-51 -69 0
-51 -78 0
-51 -87 0
-60 -69 0
-60 -78 0
-60 -87 0
-69 -78 0
-69 -87 0
-78 -87 0
-7 -16 0
-7 -25 0
-7 -34 0
-7 -43 0
-7 -52 0
-7 -61 0
-7 -70 0
-7 -79 0
-7 -88 0
-16 -25 0
-16 -34 0
-16 -43 0
-16 -52 0
-16 -61 0
-16 -70 0
-16 -79 0
-16 -88 0
-25 -34 0
-25 -43 0
-25 -52 0
-25 -61 0
-25 -70 0
-25 -79 0
-25 -88 0
-34 -43 0
-34 -52 0
-34 -61 0
-34 -70 0
-34 -79 0
-34 -88 0
-43 -52 0
-43 -61 0
-43 -70 0
-43 -79 0
-43 -88 0
-52 -61 0
-52 -70 0
-52 -79 0
-52 -88 0
-61 -70 0
-61 -79 0
-61 -88 0
-70 -79 0
-70 -88 0
-79 -88 0
-8 -17 0
-8 -26 0
-8 -35 0
-8 -44 0
-8 -53 0
-8 -62 0
-8 -71 0
-8 -80 0
-8 -89 0
-17 -26 0
-17 -35 0
-17 -44 0
-17 -53 0
-17 -62 0
-17 -71 0
-17 -80 0
-17 -89 0
-26 -35 0
-26 -44 0
-26 -53 0
-26 -62 0
-26 -71 0
-26 -80 0
-26 -89 0
-35 -44 0
-35 -53 0
-35 -62 0
-35 -71 0
-35 -80 0
-35 -89 0
-44 -53 0
-44 -62 0
-44 -71 0
-44 -80 0
-44 -89 0
-53 -62 0
-53 -71 0
-53 -80 0
-53 -89 0
-62 -71 0
-62 -80 0
-62 -89 0
-71 -80 0
-71 -89 0
-80 -89 0
-9 -18 0
-9 -27 0
-9 -36 0
-9 -45 0
-9 -54 0
-9 -63 0
-9 -72 0
-9 -81 0
-9 -90 0
-18 -27 0
-18 -36 0
-18 -45 0
-18 -54 0
-18 -63 0
-18 -72 0
-18 -81 0
-18 -90 0
-27 -36 0
-27 -45 0
-27 -54 0
-27 -63 0
-27 -72 0
-27 -81 0
-27 -90 0
-36 -45 0
-36 -54 0
-36 -63 0
-36 -72 0
-36 -81 0
-36 -90 0
-45 -54 0
-45 -63 0
-45 -72 0
-45 -81 0
-45 -90 0
-54 -63 0
-54 -72 0
-54 -81 0
-54 -90 0
-63 -72 0
-63 -81 0
-63 -90 0
-72 -81 0
-72 -90 0
-81 -90 0
a 1 11 0 
a 1 12 0 
a 1 13 0 
a 1 14 0 
a 1 15 0 
a 1 16 0 
a 1 17 0 
a 1 18 0 
a 1 20 0 
a 1 21 0 
a 1 22 0 
a 1 23 0 
a 1 24 0 
a 1 25 0 
a 1 26 0 
a 1 27 0 
a 1 29 0 
a 1 30 0 
a 1 31 0 
a 1 32 0 
a 1 33 0 
a 1 34 0 
a 1 35 0 
a 1 36 0 
a 1 38 0 
a 1 39 0 
a 1 40 0 
a 1 41 0 
a 1 42 0 
a 1 43 0 
a 1 44 0 
a 1 45 0 
a 1 47 0 
a 1 48 0 
a 1 49 0 
a 1 50 0 
a 1 51 0 
a 1 52 0 
a 1 53 0 
a 1 54 0 
a 1 56 0 
a 1 57 0 
a 1 58 0 
a 1 59 0 
a 1 60 0 
a 1 61 0 
a 1 62 0 
a 1 63 0 
a 1 65 0 
a 1 66 0 
a 1 67 0 
a 1 68 0 
a 1 69 0 
a 1 70 0 
a 1 71 0 
a 1 72 0 
a 1 74 0 
a 1 75 0 
a 1 76 0 
a 1 77 0 
a 1 78 0 
a 1 79 0 
a 1 80 0 
a 1 81 0 
a 1 83 0 
a 1 84 0 
a 1 85 0 
a 1 86 0 
a 1 87 0 
a 1 88 0 
a 1 89 0 
a 1 90 0 
a 11 21 0 
a 11 22 0 
a 11 23 0 
a 11 24 0 
a 11 25 0 
a 11 26 0 
a 11 27 0 
a 11 30 0 
a 11 31 0 
a 11 32 0 
a 11 33 0 
a 11 34 0 
a 11 35 0 
a 11 36 0 
a 11 39 0 
a 11 40 0 
a 11 41 0 
a 11 42 0 
a 11 43 0 
a 11 44 0 
a 11 45 0 
a 11 48 0 
a 11 49 0 
a 11 50 0 
a 11 51 0 
a 11 52 0 
a 11 53 0 
a 11 54 0 
a 11 57 0 
a 11 58 0 
a 11 59 0 
a 11 60 0 
a 11 61 0 
a 11 62 0 
a 11 63 0 
a 11 66 0 
a 11 67 0 
a 11 68 0 
a 11 69 0 
a 11 70 0 
a 11 71 0 
a 11 72 0 
a 11 75 0 
a 11 76 0 
a 11 77 0 
a 11 78 0 
a 11 79 0 
a 11 80 0 
a 11 81 0 
a 11 84 0 
a 11 85 0 
a 11 86 0 
a 11 87 0 
a 11 88 0 
a 11 89 0 
a 11 90 0 
a 21 31 0 
a 21 32 0 
a 21 33 0 
a 21 34 0 
a 21 35 0 
a 21 36 0 
a 21 40 0 
a 21 41 0 
a 21 42 0 
a 21 43 0 
a 21 44 0 
a 21 45 0 
a 21 49 0 
a 21 50 0 
a 21 51 0 
a 21 52 0 
a 21 53 0 
a 21 54 0 
a 21 58 0 
a 21 59 0 
a 21 60 0 
a 21 61 0 
a 21 62 0 
a 21 63 0 
a 21 67 0 
a 21 68 0 
a 21 69 0 
a 21 70 0 
a 21 71 0 
a 21 72 0 
a 21 76 0 
a 21 77 0 
a 21 78 0 
a 21 79 0 
a 21 80 0 
a 21 81 0 
a 21 85 0 
a 21 86 0 
a 21 87 0 
a 21 88 0 
a 21 89 0 
a 21 90 0 
a 31 41 0 
a 31 42 0 
a 31 43 0 
a 31 44 0 
a 31 45 0 
a 31 50 0 
a 31 51 0 
a 31 52 0 
a 31 53 0 
a 31 54 0 
a 31 59 0 
a 31 60 0 
a 31 61 0 
a 31 62 0 
a 31 63 0 
a 31 68 0 
a 31 69 0 
a 31 70 0 
a 31 71 0 
a 31 72 0 
a 31 77 0 
a 31 78 0 
a 31 79 0 
a 31 80 0 
a 31 81 0 
a 31 86 0 
a 31 87 0 
a 31 88 0 
a 31 89 0 
a 31 90 0 
a 41 51 0 
a 41 52 0 
a 41 53 0 
a 41 54 0 
a 41 60 0 
a 41 61 0 
a 41 62 0 
a 41 63 0 
a 41 69 0 
a 41 70 0 
a 41 71 0 
a 41 72 0 
a 41 78 0 
a 41 79 0 
a 41 80 0 
a 41 81 0 
a 41 87 0 
a 41 88 0 
a 41 89 0 
a 41 90 0 
a 51 61 0 
a 51 62 0 
a 51 63 0 
a 51 70 0 
a 51 71 0 
a 51 72 0 
a 51 79 0 
a 51 80 0 
a 51 81 0 
a 51 88 0 
a 51 89 0 
a 51 90 0 
a 61 71 0 
a 61 72 0 
a 61 80 0 
a 61 81 0 
a 61 89 0 
a 61 90 0 
a 71 81 0 
a 71 90 0 
